int NumberPatients = 147
int NumberOfRooms = 7
int NumberSurgeons = 22
int NumberOfDays = 6
Duration = [66,32,66,47,103,103,238,32,50,32,238,103,105,60,104,53,39,103,201,74,66,105,60,38,119,119,103,75,53,32,68,132,47,93,47,47,66,59,53,201,29,72,166,72,118,98,32,114,47,157,105,105,74,39,103,72,60,47,32,50,105,105,32,47,39,165,32,59,98,93,85,119,238,85,85,98,39,112,119,93,75,46,98,60,103,130,32,66,256,59,201,97,59,208,32,78,47,85,98,119,32,159,32,130,234,103,60,238,68,66,98,98,64,131,72,166,66,47,103,103,131,94,97,93,131,119,32,47,47,85,78,96,67,114,32,31,41,159,50,105,85,103,32,105,78,47,59];
Priority = [0,0,0,0,0,0,0,0,0,0,0,0,0,0,0,0,0,0,0,0,0,0,1,0,0,0,0,0,0,0,0,0,0,0,0,0,0,0,0,0,0,0,1,0,0,0,0,0,0,0,0,0,0,0,0,0,0,0,0,0,0,0,0,0,0,0,0,0,0,0,0,0,0,0,0,0,0,0,0,0,0,0,0,0,0,0,0,0,0,0,0,0,0,0,0,0,1,0,0,0,0,0,0,0,0,0,0,0,0,0,0,0,0,0,0,0,0,0,0,0,0,0,0,0,0,0,0,0,0,0,0,0,0,0,0,0,0,1,0,1,0,0,0,0,0,0,0];
Waiting = [248,84,221,141,163,31,127,116,80,46,45,141,78,56,102,487,162,24,155,53,324,58,78,67,324,148,499,155,281,35,113,148,410,548,37,66,87,106,164,52,37,79,66,190,106,44,324,150,32,23,85,161,80,70,56,141,191,134,604,66,158,73,49,171,74,31,204,46,123,49,200,106,107,115,190,59,95,205,67,115,178,37,57,46,99,78,59,253,63,127,32,58,164,37,50,79,46,473,281,176,45,324,127,24,46,37,1047,312,32,158,178,66,78,137,102,137,338,66,99,50,52,39,186,50,45,190,171,387,72,319,164,190,36,120,102,178,45,389,127,57,135,280,107,74,66,80,116];
Surgeon = [7,5,1,4,1,10,3,8,4,7,1,2,3,9,1,5,2,4,1,3,4,6,5,5,5,1,1,5,11,6,1,1,3,4,1,1,1,5,2,3,6,9,5,1,5,8,9,5,6,2,2,6,7,1,5,5,3,3,4,6,6,1,5,8,5,1,9,10,7,3,6,3,6,6,5,3,2,3,1,1,6,3,2,5,3,4,1,6,3,6,10,8,2,6,5,1,7,6,6,2,2,3,3,5,5,3,4,3,3,6,3,3,8,6,6,15,4,3,3,3,6,3,6,5,4,4,4,10,4,5,8,1,1,2,1,6,7,5,3,6,2,2,1,6,1,5,1];
BlockAvailability = [[[0,1],[0,0],[0,0],[0,0],[0,1],[0,0],[0,1]],[[0,0],[0,0],[0,0],[0,0],[0,1],[0,1],[0,0]],[[0,0],[0,1],[0,0],[1,1],[1,0],[0,0],[0,0]],[[1,0],[0,1],[1,0],[1,0],[0,1],[1,0],[0,0]],[[0,0],[1,0],[0,0],[0,1],[1,1],[0,1],[0,0]],[[0,0],[1,0],[0,0],[0,0],[0,0],[0,0],[0,0]]];
SurgeonAvailability = [[[1,0],[1,1],[1,0],[1,1],[1,0],[1,0]],[[1,1],[1,1],[0,0],[1,1],[0,1],[1,0]],[[1,1],[0,1],[1,1],[1,1],[0,0],[1,1]],[[1,1],[1,1],[0,1],[1,0],[0,1],[1,0]],[[0,1],[0,1],[1,1],[0,1],[1,1],[0,0]],[[1,1],[1,1],[1,0],[0,1],[1,0],[1,0]],[[1,1],[1,0],[1,1],[1,0],[1,1],[1,1]],[[0,0],[1,1],[1,1],[1,1],[1,1],[1,1]],[[1,1],[1,1],[1,1],[1,0],[1,0],[0,1]],[[1,0],[1,1],[1,1],[1,1],[1,0],[1,1]],[[1,1],[1,1],[0,1],[0,1],[1,1],[1,0]],[[1,1],[1,1],[0,1],[1,1],[0,1],[0,1]],[[0,1],[1,1],[0,1],[0,0],[0,1],[1,0]],[[1,0],[0,0],[1,1],[0,1],[1,1],[1,0]],[[1,1],[1,1],[0,1],[0,1],[1,1],[0,1]],[[1,0],[1,1],[0,1],[1,1],[0,0],[1,1]],[[1,1],[1,1],[1,0],[0,1],[1,1],[0,0]],[[1,1],[0,1],[1,1],[1,1],[1,0],[1,1]],[[0,1],[1,1],[1,1],[1,1],[1,1],[1,0]],[[1,1],[1,1],[1,0],[0,1],[1,1],[0,0]],[[0,1],[1,1],[1,0],[1,0],[1,1],[1,1]],[[1,1],[1,0],[1,1],[1,0],[1,1],[1,1]]];
